HUN,8,6,988
2,7,0,15,1,1,4,23,5,30,3,15
2,17,1,9,0,20,5,1,4,1,3,22
1,8,2,3,0,7,5,29,4,10,3,9
1,19,0,17,2,8,4,8,5,16,3,24
1,16,0,14,2,26,4,8,3,29,5,14
2,14,0,17,1,25,4,30,3,29,5,28
2,30,1,26,0,30,4,7,5,28,3,21
1,13,2,20,0,14,3,13,5,9,4,3
